set VV := 0 1 2 3 4 5 6 7 8 ;
set VS := 0 1 2 3 4 5 6 7 8 9 10 11 12 13 14 15 16 17 18 19 20 21 22 ;
param cv := 
0 20
1 17
2 21
3 15
4 19
5 13
6 22
7 22
8 16
;
param cs := 
0 32
1 21
2 35
3 30
4 28
5 21
6 38
7 23
8 22
9 31
10 35
11 30
12 40
13 35
14 32
15 26
16 28
17 24
18 30
19 40
20 29
21 27
22 20
;
param bv:	 0 1 2 3 4 5 6 7 8 := 
		0 0 0 24 24 0 0 0 0 18 
		1 0 0 14 0 0 0 0 0 0 
		2 0 0 0 20 0 25 0 0 0 
		3 0 0 0 0 14 0 19 0 14 
		4 0 0 0 0 0 0 0 0 0 
		5 0 0 0 0 0 0 0 25 0 
		6 0 0 0 0 0 0 0 0 0 
		7 0 0 0 0 0 0 0 0 12 
		8 0 0 0 0 0 0 0 0 0 
;
param bs:	 0 1 2 3 4 5 6 7 8 9 10 11 12 13 14 15 16 17 18 19 20 21 22 := 
		0 0 0 0 0 0 0 0 0 0 0 0 0 0 0 0 0 30 0 0 0 0 0 0 
		1 0 0 0 0 26 0 0 0 0 0 27 0 0 0 0 0 0 0 0 0 0 0 0 
		2 0 0 0 0 0 0 0 22 0 0 0 37 0 0 0 0 0 0 0 0 0 0 0 
		3 0 0 0 0 0 0 0 0 27 0 0 0 25 0 21 0 0 0 0 0 0 0 0 
		4 0 26 0 0 0 28 0 0 0 22 0 0 0 0 0 0 0 0 0 0 0 0 0 
		5 0 0 0 0 28 0 0 0 0 0 0 0 0 0 0 0 0 0 0 0 0 0 0 
		6 0 0 0 0 0 0 0 0 0 0 33 0 38 0 0 0 0 0 0 0 0 0 0 
		7 0 0 22 0 0 0 0 0 37 0 0 0 20 0 0 0 0 20 0 0 0 0 0 
		8 0 0 0 27 0 0 0 37 0 0 0 0 0 0 0 0 0 0 0 0 0 0 0 
		9 0 0 0 0 22 0 0 0 0 0 0 0 0 0 0 0 0 0 0 0 0 28 0 
		10 0 27 0 0 0 0 33 0 0 0 0 0 0 0 0 30 0 0 0 0 0 0 0 
		11 0 0 37 0 0 0 0 0 0 0 0 0 0 0 0 0 0 0 0 32 33 0 36 
		12 0 0 0 25 0 0 38 20 0 0 0 0 0 0 0 0 32 0 0 0 0 0 25 
		13 0 0 0 0 0 0 0 0 0 0 0 0 0 0 0 0 0 22 0 0 30 26 0 
		14 0 0 0 21 0 0 0 0 0 0 0 0 0 0 0 0 0 0 0 0 34 0 0 
		15 0 0 0 0 0 0 0 0 0 0 30 0 0 0 0 0 0 0 0 40 20 0 0 
		16 30 0 0 0 0 0 0 0 0 0 0 0 32 0 0 0 0 0 40 0 0 0 0 
		17 0 0 0 0 0 0 0 20 0 0 0 0 0 22 0 0 0 0 23 0 36 0 35 
		18 0 0 0 0 0 0 0 0 0 0 0 0 0 0 0 0 40 23 0 38 0 0 0 
		19 0 0 0 0 0 0 0 0 0 0 0 32 0 0 0 40 0 0 38 0 0 0 0 
		20 0 0 0 0 0 0 0 0 0 0 0 33 0 30 34 20 0 36 0 0 0 20 0 
		21 0 0 0 0 0 0 0 0 0 28 0 0 0 26 0 0 0 0 0 0 20 0 0 
		22 0 0 0 0 0 0 0 0 0 0 0 36 25 0 0 0 0 35 0 0 0 0 0 
;
